
Gurobi 11.0.3 (linux64) logging started Fri Nov 22 22:23:31 2024

Set parameter LogFile to value "/home/yihong/Coding/OR_SUC/SUC_results_bigM100000_thread4/case24_ieee_rts_theta0.1_epsilon0.025_gurobi_seed720000_num_gen100_N_WDR100_load_scaling_factor1_proposed_T20quadra_cost.txt"
Set parameter TimeLimit to value 3600
Gurobi Optimizer version 11.0.3 build v11.0.3rc0 (linux64 - "Ubuntu 20.04.6 LTS")

CPU model: AMD EPYC 7532 32-Core Processor, instruction set [SSE2|AVX|AVX2]
Thread count: 64 physical cores, 128 logical processors, using up to 4 threads

Optimize a model with 43202 rows, 24901 columns and 590362 nonzeros
Model fingerprint: 0x5dea51ee
Model has 2000 quadratic constraints
Variable types: 22901 continuous, 2000 integer (2000 binary)
Coefficient statistics:
  Matrix range     [3e-04, 2e+03]
  QMatrix range    [2e-03, 8e-03]
  QLMatrix range   [1e-01, 6e+01]
  Objective range  [1e+00, 1e+00]
  Bounds range     [1e+00, 1e+00]
  RHS range        [1e+00, 9e+03]
Presolve removed 35004 rows and 10802 columns
Presolve time: 0.23s
Presolved: 8198 rows, 14099 columns, 54277 nonzeros
Presolved model has 2000 quadratic constraint(s)
Variable types: 12099 continuous, 2000 integer (2000 binary)

Root relaxation: objective 3.666045e+04, 6475 iterations, 0.14 seconds (0.19 work units)

    Nodes    |    Current Node    |     Objective Bounds      |     Work
 Expl Unexpl |  Obj  Depth IntInf | Incumbent    BestBd   Gap | It/Node Time

     0     0 36660.4530    0    -          - 36660.4530      -     -    0s
     0     0 372719.712    0  490          - 372719.712      -     -    0s
     0     0 587226.102    0  402          - 587226.102      -     -    1s
     0     0 587242.546    0  211          - 587242.546      -     -    1s
     0     0 587409.796    0  170          - 587409.796      -     -    1s
     0     0 587412.072    0  170          - 587412.072      -     -    1s
     0     0 587412.072    0  170          - 587412.072      -     -    1s
     0     0 587412.952    0  170          - 587412.952      -     -    1s
     0     2 587412.952    0  170          - 587412.952      -     -    2s
H  236   248                    588516.14532 587459.733  0.18%  32.4    4s
*  236   248              70    588516.14532 587459.733  0.18%  32.4    4s
   336   262 587727.139   14   83 588516.145 587461.451  0.18%  31.1    5s
   455   345 587750.564   46   73 588516.145 587461.451  0.18%  27.9   10s
   537   412 587790.654   26   52 588516.145 587461.451  0.18%  59.5   15s
H  726   469                    587694.82153 587467.451  0.04%  61.9   17s
*  726   469              44    587694.82153 587467.451  0.04%  61.9   17s

Cutting planes:
  Gomory: 2
  Implied bound: 64
  MIR: 39
  Flow cover: 10
  RLT: 91

Explored 735 nodes (63386 simplex iterations) in 17.65 seconds (19.90 work units)
Thread count was 4 (of 128 available processors)

Solution count 3: 587695 587695 588516 

Optimal solution found (tolerance 1.00e-03)
Warning: max constraint violation (1.5402e-07) exceeds tolerance
Best objective 5.876948215345e+05, best bound 5.874674508815e+05, gap 0.0387%
